(set-logic QF_S)
(declare-fun var0 () String)
(declare-fun var1 () Int)
(declare-fun var2 () Int)
(declare-fun var3 () String)
(declare-fun var4 () String)
(declare-fun var5 () String)
(declare-fun var6 () Int)
(declare-fun var7 () Int)
(assert (str.in.re (str.substr var0 var1 var2) (re.+ re.allchar)))
(assert (str.suffixof var3 var4))
(assert (str.in.re (str.replace var5 var3 var3) (re.* re.allchar)))
(assert (str.in.re (str.at (str.substr var4 var6 var7) (str.indexof var5 var4 var2)) (re.+ re.allchar)))
(check-sat)